
--- Job basics.gms Start 10/24/25 12:44:21 51.2.0 56392656 WEX-WEI x86 64bit/MS Windows
--- Applying:
    C:\GAMS\51\gmsprmNT.txt
    C:\Users\vanqu\OneDrive\Documents\GAMS\gamsconfig.yaml
--- GAMS Parameters defined
    Input C:\Users\vanqu\OneDrive\Desktop\Thesis\honours-thesis\basics.gms
    PageSize 0
    ScrDir C:\Users\vanqu\OneDrive\Desktop\Thesis\honours-thesis\outputs\225a\
    SysDir C:\GAMS\51\
    LogOption 3
    AppendLog 1
    ErrMsg 1
    ErrorLog 99
    IDE 1
    LstTitleLeftAligned 1
Licensee: GAMS Demo, for EULA and demo limitations see   G250826+0003Cc-GEN
          https://www.gams.com/latest/docs/UG%5FLicense.html         DC0000
          C:\GAMS\51\gamslice.txt
          v:2                                                              
          Demo license for demonstration and instructional purposes only
System information: 14 physical cores and 16 Gb physical memory detected
GAMS 51.2.0   Copyright (C) 1987-2025 GAMS Development. All rights reserved
--- Starting compilation
--- basics.gms(175) 3 Mb
--- Starting execution: elapsed 0:00:00.000
--- basics.gms(156) 4 Mb
--- Generating MIP model plan
--- basics.gms(157) 4 Mb
---   160 rows  106 columns  394 non-zeroes
---   6 discrete-columns
--- Range statistics (absolute non-zero finite values)
--- RHS       [min, max] : [ 1.000E+01, 1.200E+02] - Zero values observed as well
--- Bound     [min, max] : [ 1.000E+00, 1.000E+00] - Zero values observed as well
--- Matrix    [min, max] : [ 1.000E+00, 1.350E+07]
--- Executing CPLEX (Solvelink=2): elapsed 0:00:00.016

IBM ILOG CPLEX   51.2.0 56392656 Sep 29, 2025          WEI x86 64bit/MS Window

*** This solver runs with a demo license. No commercial use.
--- GMO setup time: 0.00s
--- GMO memory 0.53 Mb (peak 0.53 Mb)
--- Dictionary memory 0.00 Mb
--- Cplex 22.1.2.0 link memory 0.00 Mb (peak 0.02 Mb)
--- Starting Cplex

Version identifier: 22.1.2.0 | 2024-11-25 | 0edbb82fd
CPXPARAM_Advance                                 0
CPXPARAM_MIP_Display                             4
CPXPARAM_MIP_Pool_Capacity                       0
CPXPARAM_MIP_Tolerances_AbsMIPGap                0
CPXPARAM_MIP_Tolerances_MIPGap                   0
Generic callback                                 0x50
Found incumbent of value 3900000.000000 after 0.00 sec. (0.01 ticks)
Tried aggregator 2 times.
MIP Presolve eliminated 107 rows and 51 columns.
MIP Presolve added 3 rows and 3 columns.
Aggregator did 6 substitutions.
Reduced MIP has 49 rows, 52 columns, and 134 nonzeros.
Reduced MIP has 0 binaries, 0 generals, 0 SOSs, and 0 indicators.
Presolve time = 0.00 sec. (0.20 ticks)
Tried aggregator 1 time.
MIP Presolve eliminated 32 rows and 34 columns.
Reduced MIP has 17 rows, 18 columns, and 46 nonzeros.
Reduced MIP has 0 binaries, 0 generals, 0 SOSs, and 0 indicators.
Presolve time = 0.00 sec. (0.03 ticks)
Tried aggregator 1 time.
Detecting symmetries...
Reduced MIP has 17 rows, 18 columns, and 46 nonzeros.
Reduced MIP has 0 binaries, 0 generals, 0 SOSs, and 0 indicators.
Presolve time = 0.00 sec. (0.02 ticks)

Root node processing (before b&c):
  Real time             =    0.00 sec. (2.27 ticks)
Parallel b&c, 20 threads:
  Real time             =    0.00 sec. (0.00 ticks)
  Sync time (average)   =    0.00 sec.
  Wait time (average)   =    0.00 sec.
                          ------------
Total (root+branch&cut) =    0.00 sec. (2.27 ticks)

--- MIP status (101): integer optimal solution.
--- Cplex Time: 0.00sec (det. 2.27 ticks)

--- Returning a primal only solution to GAMS (marginals all set to NA).
--- Fixing integer variables and solving final LP...

Version identifier: 22.1.2.0 | 2024-11-25 | 0edbb82fd
CPXPARAM_Advance                                 2
CPXPARAM_MIP_Display                             4
CPXPARAM_MIP_Pool_Capacity                       0
CPXPARAM_MIP_Tolerances_AbsMIPGap                0
CPXPARAM_MIP_Tolerances_MIPGap                   0
Tried aggregator 1 time.
LP Presolve eliminated 105 rows and 48 columns.
Aggregator did 3 substitutions.
Reduced LP has 51 rows, 55 columns, and 139 nonzeros.
Presolve time = 0.00 sec. (0.13 ticks)
Initializing dual steep norms . . .

Iteration log . . .
Iteration:     1   Dual infeasibility =         10000.000000
Iteration:     3   Dual objective     =        700000.000000

--- Fixed MIP status (1): optimal.
--- Cplex Time: 0.00sec (det. 0.25 ticks)


Proven optimal solution
MIP Solution:      2700600.000000    (0 iterations, 0 nodes)
Final Solve:       2700600.000000    (18 iterations)

Best possible:     2700600.000000
Absolute gap:            0.000000
Relative gap:            0.000000

--- Reading solution for model plan
--- Executing after solve: elapsed 0:00:00.064
--- basics.gms(172) 4 Mb
*** Status: Normal completion
--- Job basics.gms Stop 10/24/25 12:44:21 elapsed 0:00:00.064
